p cnf 289 1
289 0
w 1 0.196298
w 2 1 0.455841
w 2 -1 0.961731
w 3 2 0.790926
w 3 -2 0.310399
w 4 3 0.670739
w 4 -3 0.0242277
w 5 4 0.817586
w 5 -4 0.0991833
w 6 5 0
w 6 -5 1
w 7 6 1
w 7 -6 0
w 8 7 0
w 8 -7 1
w 9 8 1
w 9 -8 0
w 10 9 1
w 10 -9 0
w 11 10 0.579771
w 11 -10 0.887616
w 12 11 0
w 12 -11 1
w 13 12 1
w 13 -12 0
w 14 13 0.405105
w 14 -13 0.814077
w 15 14 0
w 15 -14 1
w 16 15 0.842902
w 16 -15 0.677235
w 17 16 1
w 17 -16 0
w 18 1 0.792238
w 18 -1 0.331227
w 19 18 2 0.202539
w 19 18 -2 0.352905
w 19 -18 2 0.195033
w 19 -18 -2 0.728707
w 20 19 3 0.252753
w 20 19 -3 0.770702
w 20 -19 3 0.494941
w 20 -19 -3 0.303071
w 21 20 4 0.27007
w 21 20 -4 0.882842
w 21 -20 4 0.568299
w 21 -20 -4 0.602928
w 22 21 5 0.777106
w 22 21 -5 0.656186
w 22 -21 5 0.339322
w 22 -21 -5 0.18221
w 23 22 6 0
w 23 22 -6 1
w 23 -22 6 1
w 23 -22 -6 0
w 24 23 7 1
w 24 23 -7 1
w 24 -23 7 0
w 24 -23 -7 0
w 25 24 8 0
w 25 24 -8 0
w 25 -24 8 1
w 25 -24 -8 0
w 26 25 9 1
w 26 25 -9 0
w 26 -25 9 0
w 26 -25 -9 1
w 27 26 10 1
w 27 26 -10 0
w 27 -26 10 0
w 27 -26 -10 1
w 28 27 11 0.105276
w 28 27 -11 0.865469
w 28 -27 11 0.235386
w 28 -27 -11 0.444598
w 29 28 12 0
w 29 28 -12 0
w 29 -28 12 1
w 29 -28 -12 0
w 30 29 13 0.136953
w 30 29 -13 0.817939
w 30 -29 13 0.750753
w 30 -29 -13 0.274388
w 31 30 14 0.479144
w 31 30 -14 0.614361
w 31 -30 14 0.328983
w 31 -30 -14 0.402568
w 32 31 15 0.540244
w 32 31 -15 0.578745
w 32 -31 15 0.522425
w 32 -31 -15 0.246446
w 33 32 16 0
w 33 32 -16 0
w 33 -32 16 0
w 33 -32 -16 1
w 34 33 17 0.525358
w 34 33 -17 0.996321
w 34 -33 17 0.0373028
w 34 -33 -17 0.969956
w 35 18 1
w 35 -18 0
w 36 35 19 0.640727
w 36 35 -19 0.534708
w 36 -35 19 0.875949
w 36 -35 -19 0.463734
w 37 36 20 0.693888
w 37 36 -20 0.214487
w 37 -36 20 0.946049
w 37 -36 -20 0.590897
w 38 37 21 0.56041
w 38 37 -21 0.91988
w 38 -37 21 0.0961998
w 38 -37 -21 0.243452
w 39 38 22 0
w 39 38 -22 0
w 39 -38 22 1
w 39 -38 -22 0
w 40 39 23 0.929288
w 40 39 -23 0.15302
w 40 -39 23 0.939219
w 40 -39 -23 0.731206
w 41 40 24 0.93554
w 41 40 -24 0.768508
w 41 -40 24 0.648334
w 41 -40 -24 0.97954
w 42 41 25 0.454186
w 42 41 -25 0.620267
w 42 -41 25 0.0461676
w 42 -41 -25 0.330136
w 43 42 26 1
w 43 42 -26 1
w 43 -42 26 0
w 43 -42 -26 0
w 44 43 27 0.99212
w 44 43 -27 0.224288
w 44 -43 27 0.534801
w 44 -43 -27 0.0883199
w 45 44 28 0
w 45 44 -28 0
w 45 -44 28 1
w 45 -44 -28 1
w 46 45 29 1
w 46 45 -29 1
w 46 -45 29 0
w 46 -45 -29 1
w 47 46 30 1
w 47 46 -30 0
w 47 -46 30 0
w 47 -46 -30 0
w 48 47 31 0.641958
w 48 47 -31 0.430121
w 48 -47 31 0.516549
w 48 -47 -31 0.688125
w 49 48 32 0.60055
w 49 48 -32 0.405954
w 49 -48 32 0.784281
w 49 -48 -32 0.899039
w 50 49 33 1
w 50 49 -33 0
w 50 -49 33 0
w 50 -49 -33 1
w 51 50 34 0.761859
w 51 50 -34 0.928928
w 51 -50 34 0.742744
w 51 -50 -34 0.995476
w 52 35 0.238946
w 52 -35 0.0374595
w 53 52 36 0
w 53 52 -36 0
w 53 -52 36 1
w 53 -52 -36 0
w 54 53 37 0.753695
w 54 53 -37 0.191704
w 54 -53 37 0.831685
w 54 -53 -37 0.395653
w 55 54 38 0.348234
w 55 54 -38 0.0837781
w 55 -54 38 0.382082
w 55 -54 -38 0.948785
w 56 55 39 0
w 56 55 -39 1
w 56 -55 39 1
w 56 -55 -39 1
w 57 56 40 0.853683
w 57 56 -40 0.499568
w 57 -56 40 0.718462
w 57 -56 -40 0.615542
w 58 57 41 1
w 58 57 -41 0
w 58 -57 41 1
w 58 -57 -41 1
w 59 58 42 0.320126
w 59 58 -42 0.588321
w 59 -58 42 0.66714
w 59 -58 -42 0.943323
w 60 59 43 0.602543
w 60 59 -43 0.697018
w 60 -59 43 0.995794
w 60 -59 -43 0.434228
w 61 60 44 1
w 61 60 -44 0
w 61 -60 44 1
w 61 -60 -44 1
w 62 61 45 0.666181
w 62 61 -45 0.166065
w 62 -61 45 0.579071
w 62 -61 -45 0.225744
w 63 62 46 0.318054
w 63 62 -46 0.0794274
w 63 -62 46 0.231198
w 63 -62 -46 0.0365161
w 64 63 47 0.659693
w 64 63 -47 0.497722
w 64 -63 47 0.305988
w 64 -63 -47 0.718612
w 65 64 48 1
w 65 64 -48 0
w 65 -64 48 1
w 65 -64 -48 0
w 66 65 49 0.590285
w 66 65 -49 0.224149
w 66 -65 49 0.679078
w 66 -65 -49 0.586079
w 67 66 50 0.771749
w 67 66 -50 0.203699
w 67 -66 50 0.440839
w 67 -66 -50 0.948197
w 68 67 51 1
w 68 67 -51 1
w 68 -67 51 1
w 68 -67 -51 0
w 69 52 0.101097
w 69 -52 0.0692109
w 70 69 53 0.332295
w 70 69 -53 0.105727
w 70 -69 53 0.614519
w 70 -69 -53 0.991988
w 71 70 54 0.920508
w 71 70 -54 0.7106
w 71 -70 54 0.801323
w 71 -70 -54 0.874974
w 72 71 55 0.587518
w 72 71 -55 0.49658
w 72 -71 55 0.731398
w 72 -71 -55 0.177803
w 73 72 56 0.410477
w 73 72 -56 0.763882
w 73 -72 56 0.379105
w 73 -72 -56 0.182225
w 74 73 57 0.819944
w 74 73 -57 0.130422
w 74 -73 57 0.170982
w 74 -73 -57 0.99203
w 75 74 58 0.540448
w 75 74 -58 0.743187
w 75 -74 58 0.584922
w 75 -74 -58 0.641545
w 76 75 59 0.504472
w 76 75 -59 0.97384
w 76 -75 59 0.918125
w 76 -75 -59 0.118991
w 77 76 60 0.521574
w 77 76 -60 0.0394985
w 77 -76 60 0.676428
w 77 -76 -60 0.322897
w 78 77 61 0.425766
w 78 77 -61 0.910414
w 78 -77 61 0.411053
w 78 -77 -61 0.157164
w 79 78 62 1
w 79 78 -62 1
w 79 -78 62 0
w 79 -78 -62 1
w 80 79 63 0.819679
w 80 79 -63 0.330831
w 80 -79 63 0.880289
w 80 -79 -63 0.990661
w 81 80 64 0
w 81 80 -64 1
w 81 -80 64 0
w 81 -80 -64 1
w 82 81 65 0
w 82 81 -65 1
w 82 -81 65 1
w 82 -81 -65 0
w 83 82 66 0.112321
w 83 82 -66 0.318145
w 83 -82 66 0.872972
w 83 -82 -66 0.788749
w 84 83 67 0.787445
w 84 83 -67 0.214515
w 84 -83 67 0.551456
w 84 -83 -67 0.198497
w 85 84 68 0
w 85 84 -68 0
w 85 -84 68 1
w 85 -84 -68 1
w 86 69 0.689187
w 86 -69 0.311451
w 87 86 70 1
w 87 86 -70 1
w 87 -86 70 1
w 87 -86 -70 0
w 88 87 71 0.404575
w 88 87 -71 0.00587472
w 88 -87 71 0.439351
w 88 -87 -71 0.119057
w 89 88 72 0
w 89 88 -72 0
w 89 -88 72 1
w 89 -88 -72 0
w 90 89 73 0.0534377
w 90 89 -73 0.195109
w 90 -89 73 0.612947
w 90 -89 -73 0.267953
w 91 90 74 0.811444
w 91 90 -74 0.639632
w 91 -90 74 0.386238
w 91 -90 -74 0.141723
w 92 91 75 0.87801
w 92 91 -75 0.982888
w 92 -91 75 0.268139
w 92 -91 -75 0.189461
w 93 92 76 0
w 93 92 -76 1
w 93 -92 76 0
w 93 -92 -76 1
w 94 93 77 0
w 94 93 -77 1
w 94 -93 77 1
w 94 -93 -77 0
w 95 94 78 0.483038
w 95 94 -78 0.885919
w 95 -94 78 0.50834
w 95 -94 -78 0.747726
w 96 95 79 1
w 96 95 -79 1
w 96 -95 79 0
w 96 -95 -79 0
w 97 96 80 0
w 97 96 -80 0
w 97 -96 80 1
w 97 -96 -80 1
w 98 97 81 0.287701
w 98 97 -81 0.645907
w 98 -97 81 0.882845
w 98 -97 -81 0.55584
w 99 98 82 0.0377291
w 99 98 -82 0.393454
w 99 -98 82 0.326943
w 99 -98 -82 0.68747
w 100 99 83 1
w 100 99 -83 1
w 100 -99 83 0
w 100 -99 -83 1
w 101 100 84 0.418194
w 101 100 -84 0.465445
w 101 -100 84 0.434032
w 101 -100 -84 0.926534
w 102 101 85 1
w 102 101 -85 0
w 102 -101 85 0
w 102 -101 -85 1
w 103 86 1
w 103 -86 0
w 104 103 87 0.965401
w 104 103 -87 0.7922
w 104 -103 87 0.658669
w 104 -103 -87 0.865358
w 105 104 88 0
w 105 104 -88 0
w 105 -104 88 1
w 105 -104 -88 0
w 106 105 89 0.0291942
w 106 105 -89 0.466888
w 106 -105 89 0.473403
w 106 -105 -89 0.454826
w 107 106 90 0
w 107 106 -90 0
w 107 -106 90 1
w 107 -106 -90 1
w 108 107 91 0.566478
w 108 107 -91 0.353664
w 108 -107 91 0.661939
w 108 -107 -91 0.77965
w 109 108 92 1
w 109 108 -92 1
w 109 -108 92 1
w 109 -108 -92 0
w 110 109 93 0.627566
w 110 109 -93 0.0948847
w 110 -109 93 0.669636
w 110 -109 -93 0.286235
w 111 110 94 0.749537
w 111 110 -94 0.590812
w 111 -110 94 0.708447
w 111 -110 -94 0.385277
w 112 111 95 0.494379
w 112 111 -95 0.414471
w 112 -111 95 0.197646
w 112 -111 -95 0.967782
w 113 112 96 0.316271
w 113 112 -96 0.339301
w 113 -112 96 0.186508
w 113 -112 -96 0.417305
w 114 113 97 1
w 114 113 -97 1
w 114 -113 97 0
w 114 -113 -97 1
w 115 114 98 0.840278
w 115 114 -98 0.506168
w 115 -114 98 0.557417
w 115 -114 -98 0.577072
w 116 115 99 0.434853
w 116 115 -99 0.204638
w 116 -115 99 0.730536
w 116 -115 -99 0.104489
w 117 116 100 1
w 117 116 -100 0
w 117 -116 100 1
w 117 -116 -100 1
w 118 117 101 0
w 118 117 -101 1
w 118 -117 101 1
w 118 -117 -101 1
w 119 118 102 0.523072
w 119 118 -102 0.326359
w 119 -118 102 0.200689
w 119 -118 -102 0.709579
w 120 103 0.459622
w 120 -103 0.631492
w 121 120 104 0.0722187
w 121 120 -104 0.215344
w 121 -120 104 0.49088
w 121 -120 -104 0.912497
w 122 121 105 0.0482974
w 122 121 -105 0.48957
w 122 -121 105 0.357163
w 122 -121 -105 0.483151
w 123 122 106 0.0876984
w 123 122 -106 0.58764
w 123 -122 106 0.185081
w 123 -122 -106 0.778477
w 124 123 107 0
w 124 123 -107 1
w 124 -123 107 0
w 124 -123 -107 0
w 125 124 108 1
w 125 124 -108 1
w 125 -124 108 1
w 125 -124 -108 0
w 126 125 109 0
w 126 125 -109 1
w 126 -125 109 0
w 126 -125 -109 0
w 127 126 110 0
w 127 126 -110 0
w 127 -126 110 0
w 127 -126 -110 1
w 128 127 111 0.135742
w 128 127 -111 0.425945
w 128 -127 111 0.0672916
w 128 -127 -111 0.492904
w 129 128 112 0.761499
w 129 128 -112 0.580603
w 129 -128 112 0.496736
w 129 -128 -112 0.94658
w 130 129 113 0
w 130 129 -113 1
w 130 -129 113 0
w 130 -129 -113 0
w 131 130 114 1
w 131 130 -114 1
w 131 -130 114 1
w 131 -130 -114 0
w 132 131 115 0.797506
w 132 131 -115 0.674171
w 132 -131 115 0.379325
w 132 -131 -115 0.956827
w 133 132 116 1
w 133 132 -116 0
w 133 -132 116 1
w 133 -132 -116 0
w 134 133 117 0
w 134 133 -117 0
w 134 -133 117 0
w 134 -133 -117 1
w 135 134 118 0.338915
w 135 134 -118 0.20169
w 135 -134 118 0.0530189
w 135 -134 -118 0.285495
w 136 135 119 0.991421
w 136 135 -119 0.498842
w 136 -135 119 0.097553
w 136 -135 -119 0.610793
w 137 120 0.705644
w 137 -120 0.564908
w 138 137 121 0
w 138 137 -121 1
w 138 -137 121 0
w 138 -137 -121 0
w 139 138 122 0.92758
w 139 138 -122 0.187779
w 139 -138 122 0.334374
w 139 -138 -122 0.771174
w 140 139 123 1
w 140 139 -123 1
w 140 -139 123 1
w 140 -139 -123 0
w 141 140 124 0.207722
w 141 140 -124 0.0760862
w 141 -140 124 0.195886
w 141 -140 -124 0.546637
w 142 141 125 1
w 142 141 -125 0
w 142 -141 125 1
w 142 -141 -125 1
w 143 142 126 0.851118
w 143 142 -126 0.12237
w 143 -142 126 0.641744
w 143 -142 -126 0.416026
w 144 143 127 0
w 144 143 -127 1
w 144 -143 127 1
w 144 -143 -127 0
w 145 144 128 0.193949
w 145 144 -128 0.996555
w 145 -144 128 0.883401
w 145 -144 -128 0.965123
w 146 145 129 0
w 146 145 -129 1
w 146 -145 129 0
w 146 -145 -129 0
w 147 146 130 0.741301
w 147 146 -130 0.793027
w 147 -146 130 0.5014
w 147 -146 -130 0.0190775
w 148 147 131 1
w 148 147 -131 1
w 148 -147 131 0
w 148 -147 -131 0
w 149 148 132 0.133375
w 149 148 -132 0.786876
w 149 -148 132 0.435467
w 149 -148 -132 0.549401
w 150 149 133 1
w 150 149 -133 0
w 150 -149 133 1
w 150 -149 -133 0
w 151 150 134 0.542811
w 151 150 -134 0.128972
w 151 -150 134 0.774693
w 151 -150 -134 0.507934
w 152 151 135 1
w 152 151 -135 0
w 152 -151 135 1
w 152 -151 -135 1
w 153 152 136 1
w 153 152 -136 1
w 153 -152 136 1
w 153 -152 -136 0
w 154 137 0
w 154 -137 1
w 155 154 138 0.268126
w 155 154 -138 0.17983
w 155 -154 138 0.44695
w 155 -154 -138 0.0618495
w 156 155 139 1
w 156 155 -139 0
w 156 -155 139 0
w 156 -155 -139 1
w 157 156 140 0.204872
w 157 156 -140 0.66518
w 157 -156 140 0.953375
w 157 -156 -140 0.0961639
w 158 157 141 0
w 158 157 -141 0
w 158 -157 141 0
w 158 -157 -141 1
w 159 158 142 0.181398
w 159 158 -142 0.320803
w 159 -158 142 0.505888
w 159 -158 -142 0.244013
w 160 159 143 0
w 160 159 -143 0
w 160 -159 143 0
w 160 -159 -143 1
w 161 160 144 1
w 161 160 -144 0
w 161 -160 144 1
w 161 -160 -144 0
w 162 161 145 0
w 162 161 -145 1
w 162 -161 145 1
w 162 -161 -145 1
w 163 162 146 0.557741
w 163 162 -146 0.161944
w 163 -162 146 0.909439
w 163 -162 -146 0.653905
w 164 163 147 1
w 164 163 -147 1
w 164 -163 147 0
w 164 -163 -147 0
w 165 164 148 1
w 165 164 -148 0
w 165 -164 148 0
w 165 -164 -148 0
w 166 165 149 0.783727
w 166 165 -149 0.610926
w 166 -165 149 0.626182
w 166 -165 -149 0.0915421
w 167 166 150 0.125852
w 167 166 -150 0.667483
w 167 -166 150 0.78521
w 167 -166 -150 0.0724711
w 168 167 151 1
w 168 167 -151 0
w 168 -167 151 1
w 168 -167 -151 1
w 169 168 152 0.396444
w 169 168 -152 0.186082
w 169 -168 152 0.911623
w 169 -168 -152 0.305883
w 170 169 153 0.281558
w 170 169 -153 0.297669
w 170 -169 153 0.364748
w 170 -169 -153 0.367418
w 171 154 0.745274
w 171 -154 0.634677
w 172 171 155 1
w 172 171 -155 0
w 172 -171 155 1
w 172 -171 -155 1
w 173 172 156 0.79329
w 173 172 -156 0.506958
w 173 -172 156 0.365027
w 173 -172 -156 0.919142
w 174 173 157 1
w 174 173 -157 1
w 174 -173 157 0
w 174 -173 -157 0
w 175 174 158 0
w 175 174 -158 1
w 175 -174 158 1
w 175 -174 -158 0
w 176 175 159 0
w 176 175 -159 0
w 176 -175 159 1
w 176 -175 -159 0
w 177 176 160 0.444867
w 177 176 -160 0.554808
w 177 -176 160 0.537599
w 177 -176 -160 0.190141
w 178 177 161 0
w 178 177 -161 1
w 178 -177 161 1
w 178 -177 -161 1
w 179 178 162 0
w 179 178 -162 1
w 179 -178 162 1
w 179 -178 -162 1
w 180 179 163 0.918643
w 180 179 -163 0.607573
w 180 -179 163 0.666904
w 180 -179 -163 0.398357
w 181 180 164 0
w 181 180 -164 1
w 181 -180 164 0
w 181 -180 -164 1
w 182 181 165 0.327465
w 182 181 -165 0.811474
w 182 -181 165 0.257409
w 182 -181 -165 0.407585
w 183 182 166 0.177499
w 183 182 -166 0.852452
w 183 -182 166 0.553672
w 183 -182 -166 0.715098
w 184 183 167 1
w 184 183 -167 1
w 184 -183 167 0
w 184 -183 -167 1
w 185 184 168 1
w 185 184 -168 1
w 185 -184 168 0
w 185 -184 -168 0
w 186 185 169 0.905146
w 186 185 -169 0.764512
w 186 -185 169 0.235808
w 186 -185 -169 0.57205
w 187 186 170 0
w 187 186 -170 1
w 187 -186 170 0
w 187 -186 -170 1
w 188 171 0
w 188 -171 1
w 189 188 172 0.2006
w 189 188 -172 0.373715
w 189 -188 172 0.0914731
w 189 -188 -172 0.199464
w 190 189 173 0.943925
w 190 189 -173 0.753136
w 190 -189 173 0.266312
w 190 -189 -173 0.986517
w 191 190 174 1
w 191 190 -174 0
w 191 -190 174 1
w 191 -190 -174 0
w 192 191 175 0.745782
w 192 191 -175 0.480723
w 192 -191 175 0.798474
w 192 -191 -175 0.374016
w 193 192 176 0
w 193 192 -176 1
w 193 -192 176 0
w 193 -192 -176 0
w 194 193 177 0.441402
w 194 193 -177 0.207174
w 194 -193 177 0.235337
w 194 -193 -177 0.830527
w 195 194 178 0
w 195 194 -178 1
w 195 -194 178 0
w 195 -194 -178 0
w 196 195 179 1
w 196 195 -179 1
w 196 -195 179 1
w 196 -195 -179 0
w 197 196 180 0
w 197 196 -180 1
w 197 -196 180 1
w 197 -196 -180 1
w 198 197 181 0.800684
w 198 197 -181 0.0234734
w 198 -197 181 0.543159
w 198 -197 -181 0.174701
w 199 198 182 1
w 199 198 -182 0
w 199 -198 182 1
w 199 -198 -182 0
w 200 199 183 0.808662
w 200 199 -183 0.0391738
w 200 -199 183 0.898776
w 200 -199 -183 0.639189
w 201 200 184 1
w 201 200 -184 0
w 201 -200 184 1
w 201 -200 -184 1
w 202 201 185 0.308261
w 202 201 -185 0.783324
w 202 -201 185 0.884635
w 202 -201 -185 0.822984
w 203 202 186 0.364655
w 203 202 -186 0.114867
w 203 -202 186 0.516544
w 203 -202 -186 0.419557
w 204 203 187 0.261228
w 204 203 -187 0.220242
w 204 -203 187 0.681091
w 204 -203 -187 0.804387
w 205 188 0
w 205 -188 1
w 206 205 189 0.179468
w 206 205 -189 0.457693
w 206 -205 189 0.742531
w 206 -205 -189 0.842907
w 207 206 190 0
w 207 206 -190 0
w 207 -206 190 0
w 207 -206 -190 1
w 208 207 191 0.575861
w 208 207 -191 0.20421
w 208 -207 191 0.388385
w 208 -207 -191 0.476769
w 209 208 192 0.171709
w 209 208 -192 0.361404
w 209 -208 192 0.335455
w 209 -208 -192 0.896173
w 210 209 193 0.450322
w 210 209 -193 0.412717
w 210 -209 193 0.145616
w 210 -209 -193 0.10794
w 211 210 194 0.365857
w 211 210 -194 0.789031
w 211 -210 194 0.478333
w 211 -210 -194 0.7608
w 212 211 195 0.388864
w 212 211 -195 0.940267
w 212 -211 195 0.337157
w 212 -211 -195 0.131396
w 213 212 196 0.603512
w 213 212 -196 0.913101
w 213 -212 196 0.524857
w 213 -212 -196 0.509056
w 214 213 197 0
w 214 213 -197 0
w 214 -213 197 1
w 214 -213 -197 1
w 215 214 198 0.774142
w 215 214 -198 0.644635
w 215 -214 198 0.923089
w 215 -214 -198 0.109596
w 216 215 199 0.649148
w 216 215 -199 0.559918
w 216 -215 199 0.953526
w 216 -215 -199 0.794763
w 217 216 200 0.627472
w 217 216 -200 0.160621
w 217 -216 200 0.456888
w 217 -216 -200 0.105804
w 218 217 201 0.336352
w 218 217 -201 0.494668
w 218 -217 201 0.861688
w 218 -217 -201 0.673509
w 219 218 202 0.644862
w 219 218 -202 0.277021
w 219 -218 202 0.539165
w 219 -218 -202 0.169719
w 220 219 203 0.596625
w 220 219 -203 0.25426
w 220 -219 203 0.870994
w 220 -219 -203 0.858296
w 221 220 204 0.432679
w 221 220 -204 0.632437
w 221 -220 204 0.371821
w 221 -220 -204 0.355768
w 222 205 0.91263
w 222 -205 0.00491621
w 223 222 206 1
w 223 222 -206 1
w 223 -222 206 1
w 223 -222 -206 0
w 224 223 207 0.426697
w 224 223 -207 0.599431
w 224 -223 207 0.881721
w 224 -223 -207 0.763049
w 225 224 208 1
w 225 224 -208 0
w 225 -224 208 1
w 225 -224 -208 0
w 226 225 209 0.259329
w 226 225 -209 0.55799
w 226 -225 209 0.499657
w 226 -225 -209 0.855954
w 227 226 210 0.370651
w 227 226 -210 0.714249
w 227 -226 210 0.539437
w 227 -226 -210 0.80333
w 228 227 211 1
w 228 227 -211 0
w 228 -227 211 0
w 228 -227 -211 0
w 229 228 212 0
w 229 228 -212 1
w 229 -228 212 1
w 229 -228 -212 1
w 230 229 213 0
w 230 229 -213 1
w 230 -229 213 1
w 230 -229 -213 1
w 231 230 214 0.877201
w 231 230 -214 0.549125
w 231 -230 214 0.986785
w 231 -230 -214 0.597365
w 232 231 215 0.700365
w 232 231 -215 0.856694
w 232 -231 215 0.495387
w 232 -231 -215 0.200023
w 233 232 216 0.307638
w 233 232 -216 0.570674
w 233 -232 216 0.426897
w 233 -232 -216 0.847074
w 234 233 217 0
w 234 233 -217 1
w 234 -233 217 0
w 234 -233 -217 0
w 235 234 218 0.697119
w 235 234 -218 0.252975
w 235 -234 218 0.272264
w 235 -234 -218 0.660814
w 236 235 219 0.455934
w 236 235 -219 0.584809
w 236 -235 219 0.400632
w 236 -235 -219 0.239036
w 237 236 220 1
w 237 236 -220 1
w 237 -236 220 0
w 237 -236 -220 1
w 238 237 221 0.877047
w 238 237 -221 0.638009
w 238 -237 221 0.570297
w 238 -237 -221 0.372434
w 239 222 0.282944
w 239 -222 0.680072
w 240 239 223 0
w 240 239 -223 1
w 240 -239 223 0
w 240 -239 -223 0
w 241 240 224 1
w 241 240 -224 0
w 241 -240 224 0
w 241 -240 -224 1
w 242 241 225 1
w 242 241 -225 1
w 242 -241 225 0
w 242 -241 -225 1
w 243 242 226 0.649079
w 243 242 -226 0.563647
w 243 -242 226 0.951172
w 243 -242 -226 0.58873
w 244 243 227 0.664774
w 244 243 -227 0.465777
w 244 -243 227 0.139299
w 244 -243 -227 0.235071
w 245 244 228 0.97733
w 245 244 -228 0.518015
w 245 -244 228 0.518283
w 245 -244 -228 0.386036
w 246 245 229 1
w 246 245 -229 1
w 246 -245 229 0
w 246 -245 -229 1
w 247 246 230 1
w 247 246 -230 1
w 247 -246 230 0
w 247 -246 -230 1
w 248 247 231 1
w 248 247 -231 0
w 248 -247 231 1
w 248 -247 -231 0
w 249 248 232 1
w 249 248 -232 0
w 249 -248 232 1
w 249 -248 -232 0
w 250 249 233 0.545597
w 250 249 -233 0.38535
w 250 -249 233 0.133377
w 250 -249 -233 0.684896
w 251 250 234 0.971588
w 251 250 -234 0.662226
w 251 -250 234 0.138436
w 251 -250 -234 0.489871
w 252 251 235 0
w 252 251 -235 1
w 252 -251 235 0
w 252 -251 -235 0
w 253 252 236 0.701565
w 253 252 -236 0.134582
w 253 -252 236 0.0648185
w 253 -252 -236 0.199056
w 254 253 237 0.40339
w 254 253 -237 0.370292
w 254 -253 237 0.658164
w 254 -253 -237 0.33786
w 255 254 238 0.138823
w 255 254 -238 0.107264
w 255 -254 238 0.878953
w 255 -254 -238 0.183129
w 256 239 0.546552
w 256 -239 0.728726
w 257 256 240 0
w 257 256 -240 1
w 257 -256 240 1
w 257 -256 -240 1
w 258 257 241 0
w 258 257 -241 1
w 258 -257 241 1
w 258 -257 -241 1
w 259 258 242 0
w 259 258 -242 1
w 259 -258 242 0
w 259 -258 -242 0
w 260 259 243 0.241737
w 260 259 -243 0.340791
w 260 -259 243 0.0111089
w 260 -259 -243 0.612029
w 261 260 244 0.348969
w 261 260 -244 0.412112
w 261 -260 244 0.137778
w 261 -260 -244 0.456233
w 262 261 245 1
w 262 261 -245 1
w 262 -261 245 1
w 262 -261 -245 0
w 263 262 246 1
w 263 262 -246 1
w 263 -262 246 0
w 263 -262 -246 0
w 264 263 247 0.302922
w 264 263 -247 0.310453
w 264 -263 247 0.663209
w 264 -263 -247 0.641263
w 265 264 248 0.00432452
w 265 264 -248 0.0571765
w 265 -264 248 0.530043
w 265 -264 -248 0.0470051
w 266 265 249 0.137761
w 266 265 -249 0.288742
w 266 -265 249 0.948464
w 266 -265 -249 0.14887
w 267 266 250 0.947418
w 267 266 -250 0.497839
w 267 -266 250 0.312883
w 267 -266 -250 0.0851961
w 268 267 251 0.603948
w 268 267 -251 0.406103
w 268 -267 251 0.238146
w 268 -267 -251 0.441566
w 269 268 252 1
w 269 268 -252 0
w 269 -268 252 0
w 269 -268 -252 1
w 270 269 253 1
w 270 269 -253 1
w 270 -269 253 0
w 270 -269 -253 0
w 271 270 254 0
w 271 270 -254 1
w 271 -270 254 0
w 271 -270 -254 1
w 272 271 255 0
w 272 271 -255 1
w 272 -271 255 1
w 272 -271 -255 0
w 273 256 0
w 273 -256 1
w 274 273 257 0.740285
w 274 273 -257 0.675025
w 274 -273 257 0.656396
w 274 -273 -257 0.694358
w 275 274 258 1
w 275 274 -258 0
w 275 -274 258 0
w 275 -274 -258 1
w 276 275 259 0.679652
w 276 275 -259 0.437223
w 276 -275 259 0.734196
w 276 -275 -259 0.807828
w 277 276 260 0.103402
w 277 276 -260 0.246457
w 277 -276 260 0.0166125
w 277 -276 -260 0.11387
w 278 277 261 0.142236
w 278 277 -261 0.181515
w 278 -277 261 0.628043
w 278 -277 -261 0.314866
w 279 278 262 0.721619
w 279 278 -262 0.776236
w 279 -278 262 0.480614
w 279 -278 -262 0.964065
w 280 279 263 1
w 280 279 -263 0
w 280 -279 263 0
w 280 -279 -263 0
w 281 280 264 1
w 281 280 -264 1
w 281 -280 264 1
w 281 -280 -264 0
w 282 281 265 1
w 282 281 -265 1
w 282 -281 265 0
w 282 -281 -265 0
w 283 282 266 1
w 283 282 -266 0
w 283 -282 266 1
w 283 -282 -266 0
w 284 283 267 0.219082
w 284 283 -267 0.780327
w 284 -283 267 0.132109
w 284 -283 -267 0.847126
w 285 284 268 0
w 285 284 -268 1
w 285 -284 268 0
w 285 -284 -268 0
w 286 285 269 0.00980739
w 286 285 -269 0.521369
w 286 -285 269 0.23716
w 286 -285 -269 0.823211
w 287 286 270 1
w 287 286 -270 1
w 287 -286 270 1
w 287 -286 -270 0
w 288 287 271 0.289229
w 288 287 -271 0.966206
w 288 -287 271 0.221072
w 288 -287 -271 0.0153942
w 289 288 272 0.521468
w 289 288 -272 0.636873
w 289 -288 272 0.53625
w 289 -288 -272 0.0683213